0 522 311
1 796 76
2 659 287
3 193 143
4 765 774
5 511 202
6 224 471
7 555 526
8 440 657
9 663 734
10 629 740
11 512 634
12 799 760
13 629 249
14 580 268
15 325 277
16 704 284
17 323 416
18 552 797
19 345 661
